c Generated map
c Size: 13 * 13, weights in range: 1 to 10, walls: True, with ratio 0.2
c dim 1 of 3
c
p sp 169 199
c graph contains 169 nodes and 199 arcs
c
a 1 2 8
a 2 1 8
a 2 15 1
a 15 2 1
a 2 3 4
a 3 2 4
a 3 16 2
a 16 3 2
a 3 4 9
a 4 3 9
a 4 17 4
a 17 4 4
a 4 5 9
a 5 4 9
a 5 18 2
a 18 5 2
a 5 6 6
a 6 5 6
a 6 19 2
a 19 6 2
a 6 7 3
a 7 6 3
a 7 20 4
a 20 7 4
a 7 8 10
a 8 7 10
a 8 21 5
a 21 8 5
a 8 9 6
a 9 8 6
a 9 22 1
a 22 9 1
a 11 24 3
a 24 11 3
a 11 12 4
a 12 11 4
a 12 25 1
a 25 12 1
a 12 13 10
a 13 12 10
a 13 26 4
a 26 13 4
a 15 28 4
a 28 15 4
a 15 16 1
a 16 15 1
a 16 29 8
a 29 16 8
a 16 17 10
a 17 16 10
a 17 30 2
a 30 17 2
a 17 18 2
a 18 17 2
a 18 19 9
a 19 18 9
a 19 20 4
a 20 19 4
a 20 33 1
a 33 20 1
a 20 21 2
a 21 20 2
a 21 34 6
a 34 21 6
a 21 22 4
a 22 21 4
a 22 35 2
a 35 22 2
a 22 23 2
a 23 22 2
a 23 36 9
a 36 23 9
a 23 24 10
a 24 23 10
a 24 25 3
a 25 24 3
a 25 38 6
a 38 25 6
a 25 26 10
a 26 25 10
a 26 39 9
a 39 26 9
a 27 40 1
a 40 27 1
a 27 28 10
a 28 27 10
a 28 41 10
a 41 28 10
a 28 29 9
a 29 28 9
a 29 42 1
a 42 29 1
a 29 30 1
a 30 29 1
a 30 43 6
a 43 30 6
a 33 46 6
a 46 33 6
a 33 34 10
a 34 33 10
a 34 47 10
a 47 34 10
a 34 35 2
a 35 34 2
a 35 36 3
a 36 35 3
a 36 49 3
a 49 36 3
a 38 51 10
a 51 38 10
a 38 39 8
a 39 38 8
a 39 52 8
a 52 39 8
a 40 53 6
a 53 40 6
a 40 41 10
a 41 40 10
a 41 42 9
a 42 41 9
a 42 55 10
a 55 42 10
a 42 43 8
a 43 42 8
a 43 56 3
a 56 43 3
a 43 44 8
a 44 43 8
a 44 57 1
a 57 44 1
a 44 45 8
a 45 44 8
a 45 58 8
a 58 45 8
a 45 46 7
a 46 45 7
a 46 59 7
a 59 46 7
a 46 47 7
a 47 46 7
a 47 60 5
a 60 47 5
a 49 50 8
a 50 49 8
a 50 63 6
a 63 50 6
a 50 51 3
a 51 50 3
a 51 64 10
a 64 51 10
a 51 52 8
a 52 51 8
a 55 68 2
a 68 55 2
a 55 56 6
a 56 55 6
a 56 57 10
a 57 56 10
a 57 58 2
a 58 57 2
a 58 59 4
a 59 58 4
a 59 72 4
a 72 59 4
a 59 60 1
a 60 59 1
a 60 73 7
a 73 60 7
a 60 61 10
a 61 60 10
a 61 74 2
a 74 61 2
a 63 64 6
a 64 63 6
a 64 77 6
a 77 64 6
a 67 80 10
a 80 67 10
a 67 68 9
a 68 67 9
a 68 81 8
a 81 68 8
a 72 85 5
a 85 72 5
a 72 73 1
a 73 72 1
a 73 86 10
a 86 73 10
a 73 74 1
a 74 73 1
a 74 87 3
a 87 74 3
a 77 78 7
a 78 77 7
a 78 91 5
a 91 78 5
a 79 80 1
a 80 79 1
a 80 93 5
a 93 80 5
a 80 81 7
a 81 80 7
a 81 82 3
a 82 81 3
a 82 95 2
a 95 82 2
a 82 83 9
a 83 82 9
a 83 96 1
a 96 83 1
a 83 84 7
a 84 83 7
a 84 97 9
a 97 84 9
a 84 85 7
a 85 84 7
a 85 98 1
a 98 85 1
a 85 86 4
a 86 85 4
a 86 99 3
a 99 86 3
a 86 87 9
a 87 86 9
a 87 100 6
a 100 87 6
a 93 106 7
a 106 93 7
a 95 108 5
a 108 95 5
a 95 96 7
a 96 95 7
a 96 109 3
a 109 96 3
a 96 97 1
a 97 96 1
a 97 98 5
a 98 97 5
a 98 111 9
a 111 98 9
a 98 99 3
a 99 98 3
a 99 112 7
a 112 99 7
a 99 100 8
a 100 99 8
a 100 113 4
a 113 100 4
a 100 101 3
a 101 100 3
a 101 114 2
a 114 101 2
a 103 116 8
a 116 103 8
a 108 121 6
a 121 108 6
a 108 109 3
a 109 108 3
a 109 122 1
a 122 109 1
a 111 124 3
a 124 111 3
a 111 112 1
a 112 111 1
a 112 125 5
a 125 112 5
a 112 113 9
a 113 112 9
a 113 126 4
a 126 113 4
a 113 114 4
a 114 113 4
a 114 127 7
a 127 114 7
a 114 115 8
a 115 114 8
a 115 128 5
a 128 115 5
a 115 116 6
a 116 115 6
a 116 129 9
a 129 116 9
a 118 131 6
a 131 118 6
a 121 134 6
a 134 121 6
a 121 122 2
a 122 121 2
a 122 123 6
a 123 122 6
a 123 136 3
a 136 123 3
a 123 124 7
a 124 123 7
a 124 137 8
a 137 124 8
a 124 125 2
a 125 124 2
a 125 138 9
a 138 125 9
a 125 126 9
a 126 125 9
a 126 139 5
a 139 126 5
a 126 127 10
a 127 126 10
a 127 140 3
a 140 127 3
a 127 128 6
a 128 127 6
a 128 141 9
a 141 128 9
a 128 129 4
a 129 128 4
a 129 142 7
a 142 129 7
a 129 130 9
a 130 129 9
a 131 132 5
a 132 131 5
a 132 145 3
a 145 132 3
a 134 147 2
a 147 134 2
a 136 149 4
a 149 136 4
a 136 137 1
a 137 136 1
a 137 150 4
a 150 137 4
a 137 138 3
a 138 137 3
a 138 139 6
a 139 138 6
a 139 152 1
a 152 139 1
a 139 140 5
a 140 139 5
a 140 153 9
a 153 140 9
a 140 141 7
a 141 140 7
a 141 142 8
a 142 141 8
a 142 155 9
a 155 142 9
a 145 158 1
a 158 145 1
a 145 146 7
a 146 145 7
a 146 159 9
a 159 146 9
a 146 147 5
a 147 146 5
a 147 160 3
a 160 147 3
a 147 148 3
a 148 147 3
a 148 161 1
a 161 148 1
a 148 149 9
a 149 148 9
a 149 150 2
a 150 149 2
a 150 163 9
a 163 150 9
a 152 165 7
a 165 152 7
a 152 153 7
a 153 152 7
a 153 166 3
a 166 153 3
a 155 168 3
a 168 155 3
a 155 156 9
a 156 155 9
a 156 169 10
a 169 156 10
a 157 158 6
a 158 157 6
a 158 159 6
a 159 158 6
a 159 160 9
a 160 159 9
a 160 161 6
a 161 160 6
a 163 164 4
a 164 163 4
a 164 165 3
a 165 164 3
a 165 166 3
a 166 165 3
a 166 167 9
a 167 166 9
a 167 168 4
a 168 167 4
a 168 169 4
a 169 168 4
